Problem:    02
Rows:       37
Columns:    80 (80 integer, 80 binary)
Non-zeros:  480
Status:     INTEGER OPTIMAL
Objective:  Total_risk = 1.75 (MINimum)

   No.   Row name        Activity     Lower bound   Upper bound
------ ------------    ------------- ------------- -------------
     1 Total_risk               1.75                             
     2 Assegnamento[1]
                                   0                           1 
     3 Assegnamento[2]
                                   1                           1 
     4 Assegnamento[3]
                                   1                           1 
     5 Assegnamento[4]
                                   1                           1 
     6 Assegnamento[5]
                                   1                           1 
     7 Assegnamento[6]
                                   0                           1 
     8 Assegnamento[7]
                                   0                           1 
     9 Assegnamento[8]
                                   1                           1 
    10 Assegnamento[9]
                                   1                           1 
    11 Assegnamento[10]
                                   1                           1 
    12 Assegnamento[11]
                                   1                           1 
    13 Assegnamento[12]
                                   1                           1 
    14 Assegnamento[13]
                                   1                           1 
    15 Assegnamento[14]
                                   1                           1 
    16 Assegnamento[15]
                                   1                           1 
    17 Assegnamento[16]
                                   1                           1 
    18 Assegnamento[17]
                                   1                           1 
    19 Assegnamento[18]
                                   0                           1 
    20 Assegnamento[19]
                                   1                           1 
    21 Assegnamento[20]
                                   1                           1 
    22 N_Comp[1]                   4             4             = 
    23 N_Comp[2]                   4             4             = 
    24 N_Comp[3]                   4             4             = 
    25 N_Comp[4]                   4             4             = 
    26 Total_skill[1,1]
                                  16            16               
    27 Total_skill[1,2]
                                  17            16               
    28 Total_skill[1,3]
                                  16            16               
    29 Total_skill[2,1]
                                  16            16               
    30 Total_skill[2,2]
                                  16            16               
    31 Total_skill[2,3]
                                  16            16               
    32 Total_skill[3,1]
                                  16            16               
    33 Total_skill[3,2]
                                  16            16               
    34 Total_skill[3,3]
                                  16            16               
    35 Total_skill[4,1]
                                  17            16               
    36 Total_skill[4,2]
                                  17            16               
    37 Total_skill[4,3]
                                  16            16               

   No. Column name       Activity     Lower bound   Upper bound
------ ------------    ------------- ------------- -------------
     1 x[1,1]       *              0             0             1 
     2 x[1,2]       *              0             0             1 
     3 x[1,3]       *              0             0             1 
     4 x[1,4]       *              0             0             1 
     5 x[2,1]       *              0             0             1 
     6 x[2,2]       *              1             0             1 
     7 x[2,3]       *              0             0             1 
     8 x[2,4]       *              0             0             1 
     9 x[3,1]       *              0             0             1 
    10 x[3,2]       *              1             0             1 
    11 x[3,3]       *              0             0             1 
    12 x[3,4]       *              0             0             1 
    13 x[4,1]       *              0             0             1 
    14 x[4,2]       *              0             0             1 
    15 x[4,3]       *              1             0             1 
    16 x[4,4]       *              0             0             1 
    17 x[5,1]       *              0             0             1 
    18 x[5,2]       *              0             0             1 
    19 x[5,3]       *              1             0             1 
    20 x[5,4]       *              0             0             1 
    21 x[6,1]       *              0             0             1 
    22 x[6,2]       *              0             0             1 
    23 x[6,3]       *              0             0             1 
    24 x[6,4]       *              0             0             1 
    25 x[7,1]       *              0             0             1 
    26 x[7,2]       *              0             0             1 
    27 x[7,3]       *              0             0             1 
    28 x[7,4]       *              0             0             1 
    29 x[8,1]       *              0             0             1 
    30 x[8,2]       *              0             0             1 
    31 x[8,3]       *              0             0             1 
    32 x[8,4]       *              1             0             1 
    33 x[9,1]       *              0             0             1 
    34 x[9,2]       *              1             0             1 
    35 x[9,3]       *              0             0             1 
    36 x[9,4]       *              0             0             1 
    37 x[10,1]      *              0             0             1 
    38 x[10,2]      *              0             0             1 
    39 x[10,3]      *              1             0             1 
    40 x[10,4]      *              0             0             1 
    41 x[11,1]      *              0             0             1 
    42 x[11,2]      *              0             0             1 
    43 x[11,3]      *              0             0             1 
    44 x[11,4]      *              1             0             1 
    45 x[12,1]      *              1             0             1 
    46 x[12,2]      *              0             0             1 
    47 x[12,3]      *              0             0             1 
    48 x[12,4]      *              0             0             1 
    49 x[13,1]      *              1             0             1 
    50 x[13,2]      *              0             0             1 
    51 x[13,3]      *              0             0             1 
    52 x[13,4]      *              0             0             1 
    53 x[14,1]      *              0             0             1 
    54 x[14,2]      *              0             0             1 
    55 x[14,3]      *              0             0             1 
    56 x[14,4]      *              1             0             1 
    57 x[15,1]      *              0             0             1 
    58 x[15,2]      *              0             0             1 
    59 x[15,3]      *              1             0             1 
    60 x[15,4]      *              0             0             1 
    61 x[16,1]      *              1             0             1 
    62 x[16,2]      *              0             0             1 
    63 x[16,3]      *              0             0             1 
    64 x[16,4]      *              0             0             1 
    65 x[17,1]      *              0             0             1 
    66 x[17,2]      *              1             0             1 
    67 x[17,3]      *              0             0             1 
    68 x[17,4]      *              0             0             1 
    69 x[18,1]      *              0             0             1 
    70 x[18,2]      *              0             0             1 
    71 x[18,3]      *              0             0             1 
    72 x[18,4]      *              0             0             1 
    73 x[19,1]      *              1             0             1 
    74 x[19,2]      *              0             0             1 
    75 x[19,3]      *              0             0             1 
    76 x[19,4]      *              0             0             1 
    77 x[20,1]      *              0             0             1 
    78 x[20,2]      *              0             0             1 
    79 x[20,3]      *              0             0             1 
    80 x[20,4]      *              1             0             1 

Integer feasibility conditions:

KKT.PE: max.abs.err = 0.00e+000 on row 0
        max.rel.err = 0.00e+000 on row 0
        High quality

KKT.PB: max.abs.err = 0.00e+000 on row 0
        max.rel.err = 0.00e+000 on row 0
        High quality

End of output
